 vasp.6.2.0 18Jan21 (build Jan  9 2022 18:25:22) complex
 executed on             LinuxGNU date 2022.01.11  00:30:52

 INCAR:
   LDAU = .TRUE.        (Activate DFT+U)
   LDATYPE = 2            (Dudarev
   LDAUL = 2 -1         (Orbitals for each species)
   LDAUU = 4.5  0         (U for each species)
   LDAUJ = 0  0         (J for each species)
   LMAXMIX = 4            (Mixing cut-off
   ISTART = 1            (Read existing wavefunction
   ISPIN = 2            (Non-Spin polarised DFT)
   ICHARG = 11         (Non-self-consistent: GGA/LDA band structures)
   LREAL = .FALSE.       (Projection operators: automatic)
   ENCUT = 520        (Cut-off energy for plane wave basis set, in eV)
   PREC = Accurate       (Precision level)
   LWAVE = .TRUE.        (Write WAVECAR or not)
   LCHARG = .TRUE.        (Write CHGCAR or not)
   ADDGRID = .TRUE.        (Increase grid
   ISMEAR = 0            (Gaussian smearing
   SIGMA = 0.05         (Smearing value in eV
   NELM = 90           (Max electronic SCF steps)
   NELMIN = 6            (Min electronic SCF steps)
   EDIFF = 1E-08        (SCF energy convergence
   LORBIT = 11
   EDIFFG = -2E-02        (Ionic convergence

 POTCAR:    PAW_PBE Ti_sv 26Sep2005
 POTCAR:    PAW_PBE O 08Apr2002
|           W    W    AA    RRRRR   N    N  II  N    N   GGGG   !!!           |
|           W    W   A  A   R    R  NN   N  II  NN   N  G    G  !!!           |
|           W    W  A    A  R    R  N N  N  II  N N  N  G       !!!           |
|           W WW W  AAAAAA  RRRRR   N  N N  II  N  N N  G  GGG   !            |
|           WW  WW  A    A  R   R   N   NN  II  N   NN  G    G                |
|           W    W  A    A  R    R  N    N  II  N    N   GGGG   !!!           |
|     You use a magnetic or noncollinear calculation, but did not specify     |
|     the initial magnetic moment with the MAGMOM tag. Note that a            |
|     default of 1 will be used for all atoms. This ferromagnetic setup       |
|     may break the symmetry of the crystal, in particular it may rule        |
|     out finding an antiferromagnetic solution. Thence, we recommend         |
|     setting the initial magnetic moment manually or verifying carefully     |
|     that this magnetic setup is desired.                                    |

 POTCAR:    PAW_PBE Ti_sv 26Sep2005
   VRHFIN =Ti: 3p4s3d

   TITEL  = PAW_PBE Ti_sv 26Sep2005
   POMASS =   47.880; ZVAL   =   12.000    mass and valenz
   ENMAX  =  274.610; ENMIN  =  205.957 eV

 POTCAR:    PAW_PBE O 08Apr2002
   VRHFIN =O: s2p4

   TITEL  = PAW_PBE O 08Apr2002
   POMASS =   16.000; ZVAL   =    6.000    mass and valenz
   ENMAX  =  400.000; ENMIN  =  300.000 eV

  PAW_PBE Ti_sv 26Sep2005               :
  PAW_PBE O 08Apr2002                   :

 POSCAR: Ti2 O4
  positions in cartesian coordinates
 exchange correlation table for  LEXCH =        8
   RHO(1)=    0.500       N(1)  =     2000
   RHO(2)=  100.500       N(2)  =     4000

 ion  position               nearest neighbor table
   1  0.500  0.500  0.500-   5 1.96   5 1.96   6 1.96   6 1.96   3 2.00   4 2.00
   2  0.000  0.000  0.000-   3 1.96   4 1.96   3 1.96   4 1.96   6 2.00   5 2.00
   3  0.195  0.805  0.500-   2 1.96   2 1.96   1 2.00
   4  0.805  0.195  0.500-   2 1.96   2 1.96   1 2.00
   5  0.305  0.305  0.000-   1 1.96   1 1.96   2 2.00
   6  0.695  0.695  0.000-   1 1.96   1 1.96   2 2.00

  LATTYP: Found a simple tetragonal cell.
 ALAT       =     4.6532721519
 C/A-ratio  =     0.6380892624

  Lattice vectors:

 A1 = (   4.6532721519,   0.0000000000,   0.0000000000)
 A2 = (   0.0000000000,   4.6532721519,   0.0000000000)
 A3 = (   0.0000000000,   0.0000000000,   2.9692029953)

Analysis of symmetry for initial positions (statically):
 Subroutine PRICEL returns:
 Original cell was already a primitive cell.

 Routine SETGRP: Setting up the symmetry group for a
 simple tetragonal supercell.

 Subroutine GETGRP returns: Found 16 space group operations
 (whereof  8 operations were pure point group operations)
 out of a pool of 16 trial point group operations.

The static configuration has the point symmetry D_2h.
 The point group associated with its full space group is D_4h.

Analysis of symmetry for dynamics (positions and initial velocities):
 Subroutine PRICEL returns:
 Original cell was already a primitive cell.

[...]

The dynamic configuration has the point symmetry D_2h.
 The point group associated with its full space group is D_4h.

Analysis of structural, dynamic, and magnetic symmetry:
 Subroutine PRICEL returns:
 Original cell was already a primitive cell.

 Routine SETGRP: Setting up the symmetry group for a
 simple tetragonal supercell.

 Subroutine GETGRP returns: Found 16 space group operations
 (whereof  8 operations were pure point group operations)
 out of a pool of 16 trial point group operations.

The overall configuration has the point symmetry D_2h.
 The point group associated with its full space group is D_4h.

 Subroutine INISYM returns: Found 16 space group operations
 (whereof  8 operations are pure point group operations),
 and found     1 'primitive' translations

                                     Primitive cell

  volume of cell :      64.2920

  direct lattice vectors                    reciprocal lattice vectors
     4.653272152  0.000000000  0.000000000     0.214902539  0.000000000  0.000000000
     0.000000000  4.653272152  0.000000000     0.000000000  0.214902539  0.000000000
     0.000000000  0.000000000  2.969202995     0.000000000  0.000000000  0.336790715

  length of vectors
     4.653272152  4.653272152  2.969202995     0.214902539  0.214902539  0.336790715

  position of ions in fractional coordinates (direct lattice)
     0.500000000  0.500000000  0.500000000
     0.000000000  0.000000000  0.000000000
     0.195419997  0.804579973  0.500000000
     0.804579973  0.195419997  0.500000000
     0.304580003  0.304580003  0.000000000
     0.695420027  0.695420027  0.000000000

  ion indices of the primitive-cell ions
   primitive index   ion index
                 1           1
                 2           2
                 3           3
                 4           4
                 5           5
                 6           6

 KPOINTS: K-Path Generated by VASPKIT.

Interpolating k-points between supplied coordinates.

 Line segments in fractional coordinates (reciprocal lattice):
    0.000000  0.000000  0.000000  ...  0.000000  0.500000  0.000000
    0.000000  0.500000  0.000000  ...  0.500000  0.500000  0.000000
    0.500000  0.500000  0.000000  ...  0.000000  0.000000  0.000000
    0.000000  0.000000  0.000000  ...  0.000000  0.000000  0.500000
    0.000000  0.000000  0.500000  ...  0.000000  0.500000  0.500000
    0.000000  0.500000  0.500000  ...  0.500000  0.500000  0.500000
    0.500000  0.500000  0.500000  ...  0.000000  0.000000  0.500000
    0.000000  0.500000  0.000000  ...  0.000000  0.500000  0.500000
    0.500000  0.500000  0.000000  ...  0.500000  0.500000  0.500000

 Generated    20 points on each line segment, for a total of    180 k-points:

 Following reciprocal coordinates:
            Coordinates               Weight
  0.000000  0.000000  0.000000      0.005556
  0.000000  0.026316  0.000000      0.005556
  0.000000  0.052632  0.000000      0.005556
  0.000000  0.078947  0.000000      0.005556
  0.000000  0.105263  0.000000      0.005556
  0.000000  0.131579  0.000000      0.005556
  0.000000  0.157895  0.000000      0.005556
  0.000000  0.184211  0.000000      0.005556
  0.000000  0.210526  0.000000      0.005556
  0.000000  0.236842  0.000000      0.005556
  0.000000  0.263158  0.000000      0.005556
  0.000000  0.289474  0.000000      0.005556
  0.000000  0.315789  0.000000      0.005556
  0.000000  0.342105  0.000000      0.005556
  0.000000  0.368421  0.000000      0.005556
  0.000000  0.394737  0.000000      0.005556
  0.000000  0.421053  0.000000      0.005556
  0.000000  0.447368  0.000000      0.005556
  0.000000  0.473684  0.000000      0.005556
  0.000000  0.500000  0.000000      0.005556
  0.000000  0.500000  0.000000      0.005556
  0.026316  0.500000  0.000000      0.005556
  0.052632  0.500000  0.000000      0.005556
  0.078947  0.500000  0.000000      0.005556
  0.105263  0.500000  0.000000      0.005556
  0.131579  0.500000  0.000000      0.005556
  0.157895  0.500000  0.000000      0.005556
  0.184211  0.500000  0.000000      0.005556
  0.210526  0.500000  0.000000      0.005556
  0.236842  0.500000  0.000000      0.005556
  0.263158  0.500000  0.000000      0.005556
  0.289474  0.500000  0.000000      0.005556
  0.315789  0.500000  0.000000      0.005556
  0.342105  0.500000  0.000000      0.005556
  0.368421  0.500000  0.000000      0.005556
  0.394737  0.500000  0.000000      0.005556
  0.421053  0.500000  0.000000      0.005556
  0.447368  0.500000  0.000000      0.005556
  0.473684  0.500000  0.000000      0.005556
  0.500000  0.500000  0.000000      0.005556
  0.500000  0.500000  0.000000      0.005556
  0.473684  0.473684  0.000000      0.005556
  0.447368  0.447368  0.000000      0.005556
  0.421053  0.421053  0.000000      0.005556
  0.394737  0.394737  0.000000      0.005556
  0.368421  0.368421  0.000000      0.005556
  0.342105  0.342105  0.000000      0.005556
  0.315789  0.315789  0.000000      0.005556
  0.289474  0.289474  0.000000      0.005556
  0.263158  0.263158  0.000000      0.005556
  0.236842  0.236842  0.000000      0.005556
  0.210526  0.210526  0.000000      0.005556
  0.184211  0.184211  0.000000      0.005556
  0.157895  0.157895  0.000000      0.005556
  0.131579  0.131579  0.000000      0.005556
  0.105263  0.105263  0.000000      0.005556
  0.078947  0.078947  0.000000      0.005556
  0.052632  0.052632  0.000000      0.005556
  0.026316  0.026316  0.000000      0.005556
  0.000000  0.000000  0.000000      0.005556
[...]
  0.500000  0.500000  0.131579      0.005556
  0.500000  0.500000  0.157895      0.005556
  0.500000  0.500000  0.184211      0.005556
  0.500000  0.500000  0.210526      0.005556
  0.500000  0.500000  0.236842      0.005556
  0.500000  0.500000  0.263158      0.005556
  0.500000  0.500000  0.289474      0.005556
  0.500000  0.500000  0.315789      0.005556
  0.500000  0.500000  0.342105      0.005556
  0.500000  0.500000  0.368421      0.005556
  0.500000  0.500000  0.394737      0.005556
  0.500000  0.500000  0.421053      0.005556
  0.500000  0.500000  0.447368      0.005556
  0.500000  0.500000  0.473684      0.005556
  0.500000  0.500000  0.500000      0.005556

 Following cartesian coordinates:
            Coordinates               Weight
  0.000000  0.000000  0.000000      0.005556
  0.000000  0.005655  0.000000      0.005556
  0.000000  0.011311  0.000000      0.005556
  0.000000  0.016966  0.000000      0.005556
  0.000000  0.022621  0.000000      0.005556
  0.000000  0.028277  0.000000      0.005556
  0.000000  0.033932  0.000000      0.005556
  0.000000  0.039587  0.000000      0.005556
  0.000000  0.045243  0.000000      0.005556
  0.000000  0.050898  0.000000      0.005556
  0.000000  0.056553  0.000000      0.005556
  0.000000  0.062209  0.000000      0.005556
  0.000000  0.067864  0.000000      0.005556
[...]
   3.23597864  3.23597864  0.00000000

 k-point   1 :   0.0000 0.0000 0.0000  plane waves:    1763
 k-point   2 :   0.0000 0.0263 0.0000  plane waves:    1751
 k-point   3 :   0.0000 0.0526 0.0000  plane waves:    1753
 k-point   4 :   0.0000 0.0789 0.0000  plane waves:    1745
 k-point   5 :   0.0000 0.1053 0.0000  plane waves:    1743
 k-point   6 :   0.0000 0.1316 0.0000  plane waves:    1745
 k-point   7 :   0.0000 0.1579 0.0000  plane waves:    1741
 k-point   8 :   0.0000 0.1842 0.0000  plane waves:    1745
 k-point   9 :   0.0000 0.2105 0.0000  plane waves:    1745
 k-point  10 :   0.0000 0.2368 0.0000  plane waves:    1743
 k-point  11 :   0.0000 0.2632 0.0000  plane waves:    1737
 k-point  12 :   0.0000 0.2895 0.0000  plane waves:    1729
 k-point  13 :   0.0000 0.3158 0.0000  plane waves:    1727
 k-point  14 :   0.0000 0.3421 0.0000  plane waves:    1727
 k-point  15 :   0.0000 0.3684 0.0000  plane waves:    1728
 k-point  16 :   0.0000 0.3947 0.0000  plane waves:    1732
 k-point  17 :   0.0000 0.4211 0.0000  plane waves:    1732
 k-point  18 :   0.0000 0.4474 0.0000  plane waves:    1728
 k-point  19 :   0.0000 0.4737 0.0000  plane waves:    1728
 k-point  20 :   0.0000 0.5000 0.0000  plane waves:    1730
 k-point  21 :   0.0000 0.5000 0.0000  plane waves:    1730
 k-point  22 :   0.0263 0.5000 0.0000  plane waves:    1726
 k-point  23 :   0.0526 0.5000 0.0000  plane waves:    1726
 k-point  24 :   0.0789 0.5000 0.0000  plane waves:    1734
 k-point  25 :   0.1053 0.5000 0.0000  plane waves:    1740
 k-point  26 :   0.1316 0.5000 0.0000  plane waves:    1736
 k-point  27 :   0.1579 0.5000 0.0000  plane waves:    1732
 k-point  28 :   0.1842 0.5000 0.0000  plane waves:    1740
 k-point  29 :   0.2105 0.5000 0.0000  plane waves:    1740
 k-point  30 :   0.2368 0.5000 0.0000  plane waves:    1744
 k-point  31 :   0.2632 0.5000 0.0000  plane waves:    1744
 k-point  32 :   0.2895 0.5000 0.0000  plane waves:    1738
 k-point  33 :   0.3158 0.5000 0.0000  plane waves:    1746
 k-point  34 :   0.3421 0.5000 0.0000  plane waves:    1752
 k-point  35 :   0.3684 0.5000 0.0000  plane waves:    1750
 k-point  36 :   0.3947 0.5000 0.0000  plane waves:    1742
 k-point  37 :   0.4211 0.5000 0.0000  plane waves:    1738
 k-point  38 :   0.4474 0.5000 0.0000  plane waves:    1738
 k-point  39 :   0.4737 0.5000 0.0000  plane waves:    1738
 k-point  40 :   0.5000 0.5000 0.0000  plane waves:    1728
 k-point  41 :   0.5000 0.5000 0.0000  plane waves:    1728
 k-point  42 :   0.4737 0.4737 0.0000  plane waves:    1736
 k-point  43 :   0.4474 0.4474 0.0000  plane waves:    1740
 k-point  44 :   0.4211 0.4211 0.0000  plane waves:    1746
 k-point  45 :   0.3947 0.3947 0.0000  plane waves:    1746
 k-point  46 :   0.3684 0.3684 0.0000  plane waves:    1736
 k-point  47 :   0.3421 0.3421 0.0000  plane waves:    1734
 k-point  48 :   0.3158 0.3158 0.0000  plane waves:    1744
 k-point  49 :   0.2895 0.2895 0.0000  plane waves:    1738
 k-point  50 :   0.2632 0.2632 0.0000  plane waves:    1730
 k-point  51 :   0.2368 0.2368 0.0000  plane waves:    1730
 k-point  52 :   0.2105 0.2105 0.0000  plane waves:    1738
 k-point  53 :   0.1842 0.1842 0.0000  plane waves:    1744
 k-point  54 :   0.1579 0.1579 0.0000  plane waves:    1758
 k-point  55 :   0.1316 0.1316 0.0000  plane waves:    1752
 k-point  56 :   0.1053 0.1053 0.0000  plane waves:    1753
 k-point  57 :   0.0789 0.0789 0.0000  plane waves:    1755
 k-point  58 :   0.0526 0.0526 0.0000  plane waves:    1751
 k-point  59 :   0.0263 0.0263 0.0000  plane waves:    1753
 k-point  60 :   0.0000 0.0000 0.0000  plane waves:    1763
[...]
 k-point 166 :   0.5000 0.5000 0.1316  plane waves:    1756
 k-point 167 :   0.5000 0.5000 0.1579  plane waves:    1732
 k-point 168 :   0.5000 0.5000 0.1842  plane waves:    1732
 k-point 169 :   0.5000 0.5000 0.2105  plane waves:    1732
 k-point 170 :   0.5000 0.5000 0.2368  plane waves:    1732
 k-point 171 :   0.5000 0.5000 0.2632  plane waves:    1712
 k-point 172 :   0.5000 0.5000 0.2895  plane waves:    1704
 k-point 173 :   0.5000 0.5000 0.3158  plane waves:    1712
 k-point 174 :   0.5000 0.5000 0.3421  plane waves:    1712
 k-point 175 :   0.5000 0.5000 0.3684  plane waves:    1708
 k-point 176 :   0.5000 0.5000 0.3947  plane waves:    1732
 k-point 177 :   0.5000 0.5000 0.4211  plane waves:    1736
 k-point 178 :   0.5000 0.5000 0.4474  plane waves:    1720
 k-point 179 :   0.5000 0.5000 0.4737  plane waves:    1724
 k-point 180 :   0.5000 0.5000 0.5000  plane waves:    1736

 maximum and minimum number of plane-waves per node :      1763     1704

 maximum number of plane-waves:      1763
 maximum index in each direction:
   IXMAX=    8   IYMAX=    8   IZMAX=    5
   IXMIN=   -9   IYMIN=   -9   IZMIN=   -6

 serial   3D FFT for wavefunctions
 parallel 3D FFT for charge:
    minimum data exchange during FFTs selected (reduces bandwidth)

 initial charge density was supplied:
 number of electron      48.0000001 magnetization       0.0000000
 keeping initial charge density in first step

 Maximum index for augmentation-charges        16605 (set IRDMAX)

 First call to EWALD:  gamma=   0.442
 Maximum number of real-space cells 2x 2x 4
 Maximum number of reciprocal cells 3x 3x 2

--------------------------------------- Iteration      1(   1)  ---------------------------------------

 eigenvalue-minimisations  : 40800
 total energy-change (2. order) :-0.3878967E+02  (-0.4864487E+02)
 number of electron      48.0000001 magnetization       0.0000000
 augmentation part       48.0000001 magnetization       0.0000000

 Free energy of the ion-electron system (eV)
  alpha Z        PSCENC =       192.87356740
  Ewald energy   TEWEN  =     -3558.02611946
  -Hartree energ DENC   =     -1248.55807146
  -exchange      EXHF   =         0.00000000
  -V(xc)+E(xc)   XCENC  =       235.89945665
  PAW double counting   =      5228.09310806    -5188.00219527
  entropy T*S    EENTRO =        -0.00000000
  eigenvalues    EBANDS =      -606.67133307
  atomic energy  EATOM  =      4905.60192075
  Solvation  Ediel_sol  =         0.00000000
  free energy    TOTEN  =       -38.78966640 eV

  energy without entropy =      -38.78966640  energy(sigma->0) =      -38.78966640

[...]

--------------------------------------- Iteration      1(   8)  ---------------------------------------

 eigenvalue-minimisations  : 25500
 total energy-change (2. order) :-0.6342816E-08  (-0.6355662E-08)
 number of electron      48.0000001 magnetization       0.0000000
 augmentation part       48.0000001 magnetization       0.0000000

 Free energy of the ion-electron system (eV)
  alpha Z        PSCENC =       192.87356740
  Ewald energy   TEWEN  =     -3558.02611946
  -Hartree energ DENC   =     -1248.55807146
  -exchange      EXHF   =         0.00000000
  -V(xc)+E(xc)   XCENC  =       235.89945665
  PAW double counting   =      5228.09310806    -5188.00219527
  entropy T*S    EENTRO =        -0.00000000
  eigenvalues    EBANDS =      -615.32248754
  atomic energy  EATOM  =      4905.60192075
  Solvation  Ediel_sol  =         0.00000000
  free energy    TOTEN  =       -47.44082087 eV

  energy without entropy =      -47.44082087  energy(sigma->0) =      -47.44082087

 average (electrostatic) potential at core
  the test charge radii are     1.0397  0.7215
  (the norm of the test charge is              1.0000)
       1 -77.5357       2 -77.5357       3 -69.1756       4 -69.1756       5 -69.1756
       6 -69.1756

 E-fermi :   5.3073     XC(G=0): -11.2685     alpha+bet :-13.3976

 Fermi energy:         5.3073096172

 spin component 1

 k-point     1 :       0.0000    0.0000    0.0000
  band No.  band energies     occupation
      1     -53.3208      1.00000
      2     -53.3075      1.00000
      3     -29.5383      1.00000
      4     -29.5383      1.00000
      5     -29.4105      1.00000
      6     -29.4105      1.00000
      7     -29.3604      1.00000
      8     -29.3342      1.00000
      9     -13.3265      1.00000
     10     -12.1095      1.00000
     11     -11.5348      1.00000
     12     -11.5348      1.00000
     13      -0.8571      1.00000
     14      -0.2436      1.00000
     15       0.2095      1.00000
     16       1.1810      1.00000
     17       1.1810      1.00000
     18       2.1980      1.00000
     19       2.1980      1.00000
     20       2.8220      1.00000
     21       4.0791      1.00000
     22       4.3502      1.00000
     23       4.3502      1.00000
     24       4.8774      1.00000
     25       7.2524      0.00000
     26       7.4206      0.00000
     27       7.8363      0.00000
     28       7.8904      0.00000
     29       7.8904      0.00000
     30       9.1152      0.00000
     31       9.8186      0.00000
     32      11.2220      0.00000
     33      11.2220      0.00000
     34      12.1595      0.00000
     35      12.3848      0.00000
     36      16.0573      0.00000
     37      16.0573      0.00000
     38      19.0721      0.00000
     39      20.3044      0.00000
     40      20.7845      0.00000

[...]

 k-point   180 :       0.5000    0.5000    0.5000
  band No.  band energies     occupation
      1     -53.2783      1.00000
      2     -53.2783      1.00000
      3     -29.7362      1.00000
      4     -29.7362      1.00000
      5     -29.4244      1.00000
      6     -29.4244      1.00000
      7     -29.4103      1.00000
      8     -29.4103      1.00000
      9     -12.0213      1.00000
     10     -12.0213      1.00000
     11     -11.8092      1.00000
     12     -11.8092      1.00000
     13       0.1906      1.00000
     14       0.1906      1.00000
     15       0.2791      1.00000
     16       0.2791      1.00000
     17       1.4114      1.00000
     18       1.4114      1.00000
     19       2.0514      1.00000
     20       2.0514      1.00000
     21       3.6830      1.00000
     22       3.6830      1.00000
     23       4.1355      1.00000
     24       4.1355      1.00000
     25       7.9394      0.00000
     26       7.9394      0.00000
     27       8.4725      0.00000
     28       8.4725      0.00000
     29       8.6984      0.00000
     30       8.6984      0.00000
     31      10.5492      0.00000
     32      10.5492      0.00000
     33      10.5712      0.00000
     34      10.5712      0.00000
     35      16.2486      0.00000
     36      16.2486      0.00000
     37      18.3545      0.00000
     38      18.3545      0.00000
     39      19.2703      0.00000
     40      19.2703      0.00000
 Fermi energy:         5.3073096172

 spin component 2

[...]

 k-point   180 :       0.5000    0.5000    0.5000
  band No.  band energies     occupation
      1     -53.2783      1.00000
      2     -53.2783      1.00000
      3     -29.7362      1.00000
      4     -29.7362      1.00000
      5     -29.4244      1.00000
      6     -29.4244      1.00000
      7     -29.4103      1.00000
      8     -29.4103      1.00000
      9     -12.0213      1.00000
     10     -12.0213      1.00000
     11     -11.8092      1.00000
     12     -11.8092      1.00000
     13       0.1906      1.00000
     14       0.1906      1.00000
     15       0.2791      1.00000
     16       0.2791      1.00000
     17       1.4114      1.00000
     18       1.4114      1.00000
     19       2.0514      1.00000
     20       2.0514      1.00000
     21       3.6830      1.00000
     22       3.6830      1.00000
     23       4.1355      1.00000
     24       4.1355      1.00000
     25       7.9394      0.00000
     26       7.9394      0.00000
     27       8.4725      0.00000
     28       8.4725      0.00000
     29       8.6984      0.00000
     30       8.6984      0.00000
     31      10.5492      0.00000
     32      10.5492      0.00000
     33      10.5712      0.00000
     34      10.5712      0.00000
     35      16.2486      0.00000
     36      16.2486      0.00000
     37      18.3545      0.00000
     38      18.3545      0.00000
     39      19.2703      0.00000
     40      19.2703      0.00000

 soft charge-density along one line, spin component           1
         0         1         2         3         4         5         6         7         8         9
 total charge-density along one line

 soft charge-density along one line, spin component           2
         0         1         2         3         4         5         6         7         8         9
 total charge-density along one line

------------------------ aborting loop because EDIFF is reached ----------------------------------------

 total charge

# of ion       s       p       d       tot
    1        2.218   6.309   1.488  10.014
    2        2.218   6.309   1.488  10.014
    3        1.567   3.545   0.000   5.112
    4        1.567   3.545   0.000   5.112
    5        1.567   3.545   0.000   5.112
    6        1.567   3.545   0.000   5.112
tot         10.705  26.797   2.975  40.477

 magnetization (x)

[...]

  FORCE on cell =-STRESS in cart. coord.  units (eV):
  Direction    XX          YY          ZZ          XY          YZ          ZX
  Alpha Z   192.87357   192.87357   192.87357
  Ewald   -1377.04269 -1377.04269  -803.94344     0.00000     0.00000     0.00000
  Hartree   307.49604   307.49604   631.27747     0.00000    -0.00000    -0.00000
  E(xc)    -246.92711  -246.92711  -246.22982     0.00000     0.00000     0.00000
  Local     250.35482   250.35482  -636.17159    -0.00000     0.00000    -0.00000
  n-local  -150.37040  -151.40766  -154.66269    -0.20768    -0.00000     0.00000
  augment   144.24188   144.24188   145.18686    -0.00000     0.00000     0.00000
  Kinetic   882.57900   884.57977   877.86038    -0.08530     0.00000    -0.00001
  Fock        0.00000     0.00000     0.00000     0.00000     0.00000     0.00000
  Total       3.68686     3.68686     6.19074    -0.00000     0.00000     0.00000
  in kB      91.87787    91.87787   154.27540    -0.00000     0.00000     0.00000

 VOLUME and BASIS-vectors are now :
  energy-cutoff  :      520.00
  volume of cell :       64.29
      direct lattice vectors                 reciprocal lattice vectors
     4.653272152  0.000000000  0.000000000     0.214902539  0.000000000  0.000000000
     0.000000000  4.653272152  0.000000000     0.000000000  0.214902539  0.000000000
     0.000000000  0.000000000  2.969202995     0.000000000  0.000000000  0.336790715

  length of vectors
     4.653272152  4.653272152  2.969202995     0.214902539  0.214902539  0.336790715

 FORCES acting on ions
    electron-ion (+dipol)            ewald-force                    non-local-force                 convergence-correction
   -.258E-05 -.258E-05 -.333E-06   0.229E-04 0.229E-04 -.184E-06   0.000E+00 0.000E+00 0.000E+00   -.155E-04 -.155E-04 0.818E-06
   -.716E-05 -.716E-05 -.226E-06   0.661E-04 0.661E-04 0.184E-06   0.000E+00 0.000E+00 0.000E+00   -.536E-04 -.536E-04 -.136E-06
   -.454E+02 0.454E+02 -.371E-06   0.490E+02 -.490E+02 -.103E-06   -.335E+01 0.335E+01 0.331E-23   -.148E+00 0.148E+00 0.249E-06
   0.454E+02 -.454E+02 -.371E-06   -.490E+02 0.490E+02 -.103E-06   0.335E+01 -.335E+01 -.331E-23   0.148E+00 -.148E+00 0.249E-06
   0.454E+02 0.454E+02 -.396E-07   -.490E+02 -.490E+02 0.103E-06   0.335E+01 0.335E+01 0.414E-23   0.148E+00 0.148E+00 -.792E-07
   -.454E+02 -.454E+02 -.177E-07   0.490E+02 0.490E+02 0.103E-06   -.335E+01 -.335E+01 -.414E-23   -.148E+00 -.148E+00 -.794E-07
   0.727E-04 0.727E-04 -.136E-05   0.000E+00 0.000E+00 0.593E-14   -.444E-15 0.444E-15 0.000E+00   -.737E-04 -.737E-04 0.102E-05

 POSITION                                       TOTAL-FORCE (eV/Angst)
      2.32664      2.32664      1.48460         0.000000      0.000000     -0.000000
      0.00000      0.00000      0.00000         0.000000      0.000000     -0.000000
      0.90934      3.74393      1.48460         0.159162     -0.159162     -0.000000
      3.74393      0.90934      1.48460        -0.159162      0.159162      0.000000
      1.41729      1.41729      0.00000        -0.159162     -0.159162     -0.000000
      3.23598      3.23598      0.00000         0.159162      0.159162     -0.000000
    total drift:                               -0.000001     -0.000001     -0.000000

  FREE ENERGIE OF THE ION-ELECTRON SYSTEM (eV)
  free  energy   TOTEN  =       -47.44082087 eV

  energy  without entropy=      -47.44082087  energy(sigma->0) =      -47.44082087

 writing wavefunctions

 total charge

[...]

 magnetization (x)

# of ion       s       p       d       tot
    1        0.000   0.000   0.000   0.000
    2        0.000   0.000   0.000   0.000
    3       -0.000  -0.000   0.000  -0.000
    4       -0.000  -0.000   0.000  -0.000
    5       -0.000  -0.000   0.000  -0.000
    6       -0.000  -0.000   0.000  -0.000
tot          0.000  -0.000   0.000  -0.000